4 62 58 55 8 21 57 14 97 52 78 48 64 98 51 1 10 65 94 50 27 45 55 100 80 100 1 2 91 2 58 75 1 16 38 35 32 100 88 79 48 68 64 69 26 90 81 16 68 84 85 52 24 28 85 91 82 42 74 19 81 47 53 57 54 17 73 93 79 42 13 24 49 57 12 94 31 8 27 45 92 20 95 62 65 5 68 10 83 13 33 63 30 53 11 13 25 45 97 64 